Test: fpga13_10_sat.cnf
Options: -print-activity -no-inverting-opt -sym-usage-var-bump
WARNING: for repeatability, setting FPU to use double precision
============================[ Problem Statistics ]=============================
|                                                                             |
|  Number of symmetries:           28                                         |
|  Number of invertingSyms:         0                                         |
|  Number of variables:           195                                         |
|  Number of clauses:             905                                         |
|  Parse time:                   0.00 s                                       |
|                                                                             |
============================[ Search Statistics ]==============================
| Conflicts |          ORIGINAL         |          LEARNT          | Progress |
|           |    Vars  Clauses Literals |    Limit  Clauses Lit/Cl |          |
===============================================================================
ActiveSyms: 28
ActiveSyms: 26
ActiveSyms: 24
ActiveSyms: 24
ActiveSyms: 24
ActiveSyms: 24
ActiveSyms: 25
ActiveSyms: 23
ActiveSyms: 23
ActiveSyms: 23
ActiveSyms: 23
ActiveSyms: 25
ActiveSyms: 23
ActiveSyms: 23
ActiveSyms: 23
ActiveSyms: 23
ActiveSyms: 25
ActiveSyms: 23
ActiveSyms: 23
ActiveSyms: 23
ActiveSyms: 23
ActiveSyms: 25
ActiveSyms: 23
ActiveSyms: 23
ActiveSyms: 23
ActiveSyms: 23
ActiveSyms: 25
ActiveSyms: 23
ActiveSyms: 23
ActiveSyms: 23
ActiveSyms: 23
ActiveSyms: 25
ActiveSyms: 24
ActiveSyms: 24
ActiveSyms: 24
ActiveSyms: 24
ActiveSyms: 26
ActiveSyms: 24
ActiveSyms: 24
ActiveSyms: 24
ActiveSyms: 24
ActiveSyms: 25
ActiveSyms: 23
ActiveSyms: 23
ActiveSyms: 23
ActiveSyms: 23
ActiveSyms: 25
ActiveSyms: 23
ActiveSyms: 23
ActiveSyms: 23
ActiveSyms: 23
ActiveSyms: 25
ActiveSyms: 23
ActiveSyms: 23
ActiveSyms: 23
ActiveSyms: 23
ActiveSyms: 25
ActiveSyms: 23
ActiveSyms: 21
ActiveSyms: 21
ActiveSyms: 22
ActiveSyms: 25
ActiveSyms: 23
ActiveSyms: 21
ActiveSyms: 20
ActiveSyms: 20
ActiveSyms: 20
ActiveSyms: 19
ActiveSyms: 19
ActiveSyms: 20
ActiveSyms: 25
ActiveSyms: 23
ActiveSyms: 21
ActiveSyms: 21
ActiveSyms: 19
ActiveSyms: 19
ActiveSyms: 19
ActiveSyms: 19
ActiveSyms: 18
ActiveSyms: 18
ActiveSyms: 18
ActiveSyms: 18
ActiveSyms: 18
ActiveSyms: 19
ActiveSyms: 18
ActiveSyms: 19
ActiveSyms: 19
ActiveSyms: 19
ActiveSyms: 19
ActiveSyms: 18
ActiveSyms: 18
ActiveSyms: 18
ActiveSyms: 18
ActiveSyms: 18
ActiveSyms: 17
ActiveSyms: 18
ActiveSyms: 19
ActiveSyms: 18
ActiveSyms: 18
ActiveSyms: 18
ActiveSyms: 21
ActiveSyms: 21
ActiveSyms: 25
ActiveSyms: 24
ActiveSyms: 20
ActiveSyms: 20
ActiveSyms: 19
ActiveSyms: 18
ActiveSyms: 19
ActiveSyms: 20
ActiveSyms: 20
ActiveSyms: 19
ActiveSyms: 18
ActiveSyms: 17
ActiveSyms: 18
ActiveSyms: 17
ActiveSyms: 18
ActiveSyms: 17
ActiveSyms: 18
ActiveSyms: 19
ActiveSyms: 20
ActiveSyms: 22
ActiveSyms: 19
ActiveSyms: 19
ActiveSyms: 16
ActiveSyms: 16
ActiveSyms: 17
ActiveSyms: 17
ActiveSyms: 17
ActiveSyms: 18
ActiveSyms: 18
ActiveSyms: 18
ActiveSyms: 16
ActiveSyms: 16
ActiveSyms: 16
ActiveSyms: 17
ActiveSyms: 16
ActiveSyms: 16
ActiveSyms: 16
ActiveSyms: 17
ActiveSyms: 17
ActiveSyms: 17
ActiveSyms: 16
ActiveSyms: 16
ActiveSyms: 16
ActiveSyms: 16
ActiveSyms: 17
ActiveSyms: 17
ActiveSyms: 19
ActiveSyms: 17
ActiveSyms: 18
ActiveSyms: 17
ActiveSyms: 17
ActiveSyms: 17
ActiveSyms: 18
ActiveSyms: 18
ActiveSyms: 18
ActiveSyms: 17
ActiveSyms: 20
ActiveSyms: 19
ActiveSyms: 19
ActiveSyms: 18
ActiveSyms: 18
ActiveSyms: 17
ActiveSyms: 16
ActiveSyms: 17
ActiveSyms: 17
ActiveSyms: 16
ActiveSyms: 16
ActiveSyms: 16
ActiveSyms: 15
ActiveSyms: 15
ActiveSyms: 15
ActiveSyms: 15
ActiveSyms: 15
ActiveSyms: 15
ActiveSyms: 16
ActiveSyms: 16
ActiveSyms: 16
ActiveSyms: 16
ActiveSyms: 16
ActiveSyms: 18
ActiveSyms: 16
ActiveSyms: 15
ActiveSyms: 15
ActiveSyms: 16
ActiveSyms: 17
ActiveSyms: 16
ActiveSyms: 16
ActiveSyms: 16
ActiveSyms: 18
ActiveSyms: 20
ActiveSyms: 18
ActiveSyms: 17
ActiveSyms: 17
ActiveSyms: 19
ActiveSyms: 19
ActiveSyms: 19
ActiveSyms: 16
ActiveSyms: 16
ActiveSyms: 16
ActiveSyms: 16
ActiveSyms: 15
ActiveSyms: 16
ActiveSyms: 16
ActiveSyms: 17
ActiveSyms: 16
ActiveSyms: 16
ActiveSyms: 16
ActiveSyms: 17
ActiveSyms: 17
ActiveSyms: 17
ActiveSyms: 17
ActiveSyms: 17
ActiveSyms: 16
ActiveSyms: 16
ActiveSyms: 16
ActiveSyms: 16
ActiveSyms: 16
ActiveSyms: 17
ActiveSyms: 17
ActiveSyms: 16
ActiveSyms: 15
ActiveSyms: 15
ActiveSyms: 15
ActiveSyms: 18
ActiveSyms: 16
ActiveSyms: 17
ActiveSyms: 16
ActiveSyms: 18
ActiveSyms: 16
ActiveSyms: 18
ActiveSyms: 20
ActiveSyms: 19
ActiveSyms: 17
ActiveSyms: 17
ActiveSyms: 16
ActiveSyms: 17
ActiveSyms: 19
ActiveSyms: 18
ActiveSyms: 17
ActiveSyms: 18
ActiveSyms: 18
ActiveSyms: 16
ActiveSyms: 17
ActiveSyms: 17
ActiveSyms: 19
ActiveSyms: 22
ActiveSyms: 20
ActiveSyms: 20
ActiveSyms: 26
ActiveSyms: 24
ActiveSyms: 20
ActiveSyms: 21
ActiveSyms: 19
ActiveSyms: 20
ActiveSyms: 19
ActiveSyms: 19
ActiveSyms: 18
ActiveSyms: 18
ActiveSyms: 17
ActiveSyms: 15
ActiveSyms: 15
ActiveSyms: 16
ActiveSyms: 16
ActiveSyms: 17
ActiveSyms: 16
ActiveSyms: 16
ActiveSyms: 17
ActiveSyms: 15
ActiveSyms: 17
ActiveSyms: 17
ActiveSyms: 16
ActiveSyms: 15
ActiveSyms: 16
ActiveSyms: 16
ActiveSyms: 17
ActiveSyms: 16
ActiveSyms: 18
ActiveSyms: 17
ActiveSyms: 18
ActiveSyms: 19
ActiveSyms: 18
ActiveSyms: 16
ActiveSyms: 17
ActiveSyms: 17
ActiveSyms: 17
ActiveSyms: 16
ActiveSyms: 16
ActiveSyms: 15
ActiveSyms: 17
ActiveSyms: 16
ActiveSyms: 15
ActiveSyms: 15
ActiveSyms: 15
|       100 |     195      905     2440 |      331      237     51 |  0.003 % |
ActiveSyms: 17
ActiveSyms: 18
ActiveSyms: 20
ActiveSyms: 19
ActiveSyms: 21
ActiveSyms: 19
ActiveSyms: 28
ActiveSyms: 24
ActiveSyms: 24
ActiveSyms: 25
ActiveSyms: 23
ActiveSyms: 21
ActiveSyms: 21
ActiveSyms: 21
ActiveSyms: 20
ActiveSyms: 18
ActiveSyms: 19
ActiveSyms: 17
ActiveSyms: 17
ActiveSyms: 17
ActiveSyms: 17
ActiveSyms: 18
ActiveSyms: 18
ActiveSyms: 17
ActiveSyms: 18
ActiveSyms: 17
ActiveSyms: 17
ActiveSyms: 17
ActiveSyms: 16
ActiveSyms: 16
ActiveSyms: 16
ActiveSyms: 16
ActiveSyms: 16
ActiveSyms: 16
ActiveSyms: 16
ActiveSyms: 14
ActiveSyms: 14
ActiveSyms: 14
ActiveSyms: 14
ActiveSyms: 15
ActiveSyms: 15
ActiveSyms: 13
ActiveSyms: 13
ActiveSyms: 13
ActiveSyms: 13
ActiveSyms: 14
ActiveSyms: 15
ActiveSyms: 13
ActiveSyms: 13
ActiveSyms: 13
ActiveSyms: 13
ActiveSyms: 14
ActiveSyms: 15
ActiveSyms: 16
ActiveSyms: 14
ActiveSyms: 14
ActiveSyms: 14
ActiveSyms: 14
ActiveSyms: 15
ActiveSyms: 16
ActiveSyms: 15
ActiveSyms: 15
ActiveSyms: 15
ActiveSyms: 16
ActiveSyms: 15
ActiveSyms: 13
ActiveSyms: 13
ActiveSyms: 14
ActiveSyms: 14
ActiveSyms: 13
ActiveSyms: 12
ActiveSyms: 12
ActiveSyms: 14
ActiveSyms: 14
ActiveSyms: 13
ActiveSyms: 11
ActiveSyms: 13
ActiveSyms: 12
ActiveSyms: 9
ActiveSyms: 10
ActiveSyms: 9
ActiveSyms: 7
ActiveSyms: 8
ActiveSyms: 8
ActiveSyms: 7
ActiveSyms: 8
ActiveSyms: 8
ActiveSyms: 8
ActiveSyms: 7
ActiveSyms: 7
ActiveSyms: 6
ActiveSyms: 6
ActiveSyms: 7
ActiveSyms: 6
ActiveSyms: 5
ActiveSyms: 4
ActiveSyms: 5
ActiveSyms: 5
ActiveSyms: 5
ActiveSyms: 5
ActiveSyms: 5
ActiveSyms: 7
ActiveSyms: 7
ActiveSyms: 5
ActiveSyms: 5
ActiveSyms: 5
ActiveSyms: 5
ActiveSyms: 5
ActiveSyms: 5
ActiveSyms: 6
ActiveSyms: 5
ActiveSyms: 6
ActiveSyms: 5
ActiveSyms: 5
ActiveSyms: 5
ActiveSyms: 5
ActiveSyms: 5
ActiveSyms: 5
ActiveSyms: 5
ActiveSyms: 5
ActiveSyms: 7
ActiveSyms: 7
ActiveSyms: 5
ActiveSyms: 5
ActiveSyms: 5
ActiveSyms: 5
ActiveSyms: 5
ActiveSyms: 5
ActiveSyms: 5
ActiveSyms: 5
ActiveSyms: 5
ActiveSyms: 5
ActiveSyms: 5
ActiveSyms: 5
ActiveSyms: 5
ActiveSyms: 5
ActiveSyms: 5
ActiveSyms: 5
ActiveSyms: 5
ActiveSyms: 5
ActiveSyms: 5
ActiveSyms: 5
ActiveSyms: 5
ActiveSyms: 5
ActiveSyms: 5
ActiveSyms: 5
ActiveSyms: 5
ActiveSyms: 5
ActiveSyms: 5
ActiveSyms: 4
ActiveSyms: 4
ActiveSyms: 4
ActiveSyms: 2
ActiveSyms: 0
ActiveSyms: 0
ActiveSyms: 2
ActiveSyms: 3
ActiveSyms: 2
ActiveSyms: 2
ActiveSyms: 2
ActiveSyms: 1
ActiveSyms: 0
ActiveSyms: 0
ActiveSyms: 0
ActiveSyms: 0
ActiveSyms: 0
ActiveSyms: 1
ActiveSyms: 0
===============================================================================
restarts              : 2
conflicts             : 125            (31250 /sec)
symconflicts          : 28             (7000 /sec)
decisions             : 337            (0.00 % random) (84250 /sec)
propagations          : 2687           (671750 /sec)
sympropagations       : 159            (39750 /sec)
conflict literals     : 5804           (1.17 % deleted)
literals     : 5804           (1.17 % deleted)

HEURISTIC USAGES
random                : 0           
activity w/ lookahead : 0           
activity no lookahead : 0           
original sp           : 336         
sym count             : 0           

Memory used           : 5.00 MB
CPU time              : 0.004 s

SATISFIABLE
